instances/shortest_path/discrete/shortest_path_6_2.lp
\ Model nohadani_6_2
\ LP format - for model browsing. Use MPS format to capture full model detail.
\ Signature: 0x9d6f60db6d04e09d
Minimize
  55.97320787662612 y[0,1] + 75.8023746329889 y[0,2]
   + 69.26037828369117 y[0,4] + 55.97320787662612 y[1,0]
   + 20.6155281280883 y[1,2] + 39.21734310225516 y[1,3]
   + 41.10960958218893 y[1,4] + 29.01723625709382 y[1,5]
   + 75.8023746329889 y[2,0] + 20.6155281280883 y[2,1]
   + 43.18564576337837 y[2,3] + 39.81205847478876 y[2,4]
   + 13.45362404707371 y[2,5] + 39.21734310225516 y[3,1]
   + 43.18564576337837 y[3,2] + 56.63920903402519 y[3,5]
   + 69.26037828369117 y[4,0] + 41.10960958218893 y[4,1]
   + 39.81205847478876 y[4,2] + 30.06659275674582 y[4,5]
   + 29.01723625709382 y[5,1] + 13.45362404707371 y[5,2]
   + 56.63920903402519 y[5,3] + 30.06659275674582 y[5,4] + x[0,1] + x[0,2]
   + x[0,4] + x[1,0] + x[1,2] + x[1,3] + x[1,4] + x[1,5] + x[2,0] + x[2,1]
   + x[2,3] + x[2,4] + x[2,5] + x[3,1] + x[3,2] + x[3,5] + x[4,0] + x[4,1]
   + x[4,2] + x[4,5] + x[5,1] + x[5,2] + x[5,3] + x[5,4]
   + 5.597320787662612 r[0,1] + 7.58023746329889 r[0,2]
   + 6.926037828369117 r[0,4] + 5.597320787662612 r[1,0]
   + 2.06155281280883 r[1,2] + 3.921734310225516 r[1,3]
   + 4.110960958218893 r[1,4] + 2.901723625709382 r[1,5]
   + 7.58023746329889 r[2,0] + 2.06155281280883 r[2,1]
   + 4.318564576337837 r[2,3] + 3.981205847478877 r[2,4]
   + 1.345362404707371 r[2,5] + 3.921734310225516 r[3,1]
   + 4.318564576337837 r[3,2] + 5.663920903402519 r[3,5]
   + 6.926037828369117 r[4,0] + 4.110960958218893 r[4,1]
   + 3.981205847478877 r[4,2] + 3.006659275674582 r[4,5]
   + 2.901723625709382 r[5,1] + 1.345362404707371 r[5,2]
   + 5.663920903402519 r[5,3] + 3.006659275674582 r[5,4]
Subject To
 flow_cons_inner_nodes[1]: y[0,1] - y[1,0] - y[1,2] - y[1,3] - y[1,4]
   - y[1,5] + y[2,1] + y[3,1] + y[4,1] + y[5,1] = 0
 flow_cons_inner_nodes[2]: y[0,2] + y[1,2] - y[2,0] - y[2,1] - y[2,3]
   - y[2,4] - y[2,5] + y[3,2] + y[4,2] + y[5,2] = 0
 flow_cons_inner_nodes[3]: y[1,3] + y[2,3] - y[3,1] - y[3,2] - y[3,5]
   + y[5,3] = 0
 flow_cons_inner_nodes[4]: y[0,4] + y[1,4] + y[2,4] - y[4,0] - y[4,1]
   - y[4,2] - y[4,5] + y[5,4] = 0
 flow_cons_source: y[0,1] + y[0,2] + y[0,4] - y[1,0] - y[2,0] - y[4,0] = 1
 flow_cons_target: y[1,5] + y[2,5] + y[3,5] + y[4,5] - y[5,1] - y[5,2]
   - y[5,3] - y[5,4] = 1
 primal_lower: 2.56377962214076 x[0,1] + 2.404957925387247 x[0,2]
   + 1.823032531572055 x[0,4] + 1.366404672108272 x[1,0]
   + 3.647801512419769 x[1,2] + 1.272250357715174 x[1,3]
   + 3.142757566770659 x[1,4] + 4.234394059615379 x[1,5]
   + 3.516970708572012 x[2,0] + 3.475254337173418 x[2,1]
   + 0.882721593901386 x[2,3] + 2.424034598677278 x[2,4]
   + 0.139004170114712 x[2,5] + 1.415045099406733 x[3,1]
   + 0.58046246793181 x[3,2] + 1.292146552259327 x[3,5]
   + 1.447819700250671 x[4,0] + 4.503842658005135 x[4,1]
   + 0.4049333382046985 x[4,2] + 0.4592316084151861 x[4,5]
   + 2.45114958780206 x[5,1] + 3.416765954257415 x[5,2]
   + 4.710743829853433 x[5,3] + 4.091894631081567 x[5,4] + 60 u[0,1]
   + 84 u[0,2] + 26 u[0,4] + 47 u[1,0] + 100 u[1,2] + 90 u[1,3] + 17 u[1,4]
   + 76 u[1,5] + 53 u[2,0] + 18 u[2,1] + 44 u[2,3] + 95 u[2,4] + 84 u[2,5]
   + 40 u[3,1] + 77 u[3,2] + 49 u[3,5] + 49 u[4,0] + 56 u[4,1] + 37 u[4,2]
   + 18 u[4,5] + 37 u[5,1] + 60 u[5,2] + 16 u[5,3] + 23 u[5,4] <= 114
 mccormick1[0,1]: - u[0,1] + r[0,1] <= 0
 mccormick1[0,2]: - u[0,2] + r[0,2] <= 0
 mccormick1[0,4]: - u[0,4] + r[0,4] <= 0
 mccormick1[1,0]: - u[1,0] + r[1,0] <= 0
 mccormick1[1,2]: - u[1,2] + r[1,2] <= 0
 mccormick1[1,3]: - u[1,3] + r[1,3] <= 0
 mccormick1[1,4]: - u[1,4] + r[1,4] <= 0
 mccormick1[1,5]: - u[1,5] + r[1,5] <= 0
 mccormick1[2,0]: - u[2,0] + r[2,0] <= 0
 mccormick1[2,1]: - u[2,1] + r[2,1] <= 0
 mccormick1[2,3]: - u[2,3] + r[2,3] <= 0
 mccormick1[2,4]: - u[2,4] + r[2,4] <= 0
 mccormick1[2,5]: - u[2,5] + r[2,5] <= 0
 mccormick1[3,1]: - u[3,1] + r[3,1] <= 0
 mccormick1[3,2]: - u[3,2] + r[3,2] <= 0
 mccormick1[3,5]: - u[3,5] + r[3,5] <= 0
 mccormick1[4,0]: - u[4,0] + r[4,0] <= 0
 mccormick1[4,1]: - u[4,1] + r[4,1] <= 0
 mccormick1[4,2]: - u[4,2] + r[4,2] <= 0
 mccormick1[4,5]: - u[4,5] + r[4,5] <= 0
 mccormick1[5,1]: - u[5,1] + r[5,1] <= 0
 mccormick1[5,2]: - u[5,2] + r[5,2] <= 0
 mccormick1[5,3]: - u[5,3] + r[5,3] <= 0
 mccormick1[5,4]: - u[5,4] + r[5,4] <= 0
 mccormick2[0,1]: - y[0,1] + r[0,1] <= 0
 mccormick2[0,2]: - y[0,2] + r[0,2] <= 0
 mccormick2[0,4]: - y[0,4] + r[0,4] <= 0
 mccormick2[1,0]: - y[1,0] + r[1,0] <= 0
 mccormick2[1,2]: - y[1,2] + r[1,2] <= 0
 mccormick2[1,3]: - y[1,3] + r[1,3] <= 0
 mccormick2[1,4]: - y[1,4] + r[1,4] <= 0
 mccormick2[1,5]: - y[1,5] + r[1,5] <= 0
 mccormick2[2,0]: - y[2,0] + r[2,0] <= 0
 mccormick2[2,1]: - y[2,1] + r[2,1] <= 0
 mccormick2[2,3]: - y[2,3] + r[2,3] <= 0
 mccormick2[2,4]: - y[2,4] + r[2,4] <= 0
 mccormick2[2,5]: - y[2,5] + r[2,5] <= 0
 mccormick2[3,1]: - y[3,1] + r[3,1] <= 0
 mccormick2[3,2]: - y[3,2] + r[3,2] <= 0
 mccormick2[3,5]: - y[3,5] + r[3,5] <= 0
 mccormick2[4,0]: - y[4,0] + r[4,0] <= 0
 mccormick2[4,1]: - y[4,1] + r[4,1] <= 0
 mccormick2[4,2]: - y[4,2] + r[4,2] <= 0
 mccormick2[4,5]: - y[4,5] + r[4,5] <= 0
 mccormick2[5,1]: - y[5,1] + r[5,1] <= 0
 mccormick2[5,2]: - y[5,2] + r[5,2] <= 0
 mccormick2[5,3]: - y[5,3] + r[5,3] <= 0
 mccormick2[5,4]: - y[5,4] + r[5,4] <= 0
 mccormick3[0,1]: - y[0,1] - u[0,1] + r[0,1] >= -1
 mccormick3[0,2]: - y[0,2] - u[0,2] + r[0,2] >= -1
 mccormick3[0,4]: - y[0,4] - u[0,4] + r[0,4] >= -1
 mccormick3[1,0]: - y[1,0] - u[1,0] + r[1,0] >= -1
 mccormick3[1,2]: - y[1,2] - u[1,2] + r[1,2] >= -1
 mccormick3[1,3]: - y[1,3] - u[1,3] + r[1,3] >= -1
 mccormick3[1,4]: - y[1,4] - u[1,4] + r[1,4] >= -1
 mccormick3[1,5]: - y[1,5] - u[1,5] + r[1,5] >= -1
 mccormick3[2,0]: - y[2,0] - u[2,0] + r[2,0] >= -1
 mccormick3[2,1]: - y[2,1] - u[2,1] + r[2,1] >= -1
 mccormick3[2,3]: - y[2,3] - u[2,3] + r[2,3] >= -1
 mccormick3[2,4]: - y[2,4] - u[2,4] + r[2,4] >= -1
 mccormick3[2,5]: - y[2,5] - u[2,5] + r[2,5] >= -1
 mccormick3[3,1]: - y[3,1] - u[3,1] + r[3,1] >= -1
 mccormick3[3,2]: - y[3,2] - u[3,2] + r[3,2] >= -1
 mccormick3[3,5]: - y[3,5] - u[3,5] + r[3,5] >= -1
 mccormick3[4,0]: - y[4,0] - u[4,0] + r[4,0] >= -1
 mccormick3[4,1]: - y[4,1] - u[4,1] + r[4,1] >= -1
 mccormick3[4,2]: - y[4,2] - u[4,2] + r[4,2] >= -1
 mccormick3[4,5]: - y[4,5] - u[4,5] + r[4,5] >= -1
 mccormick3[5,1]: - y[5,1] - u[5,1] + r[5,1] >= -1
 mccormick3[5,2]: - y[5,2] - u[5,2] + r[5,2] >= -1
 mccormick3[5,3]: - y[5,3] - u[5,3] + r[5,3] >= -1
 mccormick3[5,4]: - y[5,4] - u[5,4] + r[5,4] >= -1
Bounds
Binaries
 y[0,1] y[0,2] y[0,4] y[1,0] y[1,2] y[1,3] y[1,4] y[1,5] y[2,0] y[2,1]
 y[2,3] y[2,4] y[2,5] y[3,1] y[3,2] y[3,5] y[4,0] y[4,1] y[4,2] y[4,5]
 y[5,1] y[5,2] y[5,3] y[5,4] x[0,1] x[0,2] x[0,4] x[1,0] x[1,2] x[1,3]
 x[1,4] x[1,5] x[2,0] x[2,1] x[2,3] x[2,4] x[2,5] x[3,1] x[3,2] x[3,5]
 x[4,0] x[4,1] x[4,2] x[4,5] x[5,1] x[5,2] x[5,3] x[5,4] u[0,1] u[0,2]
 u[0,4] u[1,0] u[1,2] u[1,3] u[1,4] u[1,5] u[2,0] u[2,1] u[2,3] u[2,4]
 u[2,5] u[3,1] u[3,2] u[3,5] u[4,0] u[4,1] u[4,2] u[4,5] u[5,1] u[5,2]
 u[5,3] u[5,4] r[0,1] r[0,2] r[0,4] r[1,0] r[1,2] r[1,3] r[1,4] r[1,5]
 r[2,0] r[2,1] r[2,3] r[2,4] r[2,5] r[3,1] r[3,2] r[3,5] r[4,0] r[4,1]
 r[4,2] r[4,5] r[5,1] r[5,2] r[5,3] r[5,4]
End
