instances/shortest_path/discrete/shortest_path_6_2.mps
* Signature: 0x9d6f60db6d04e09d
NAME nohadani_6_2
ROWS
 N  OBJ
 E  flow_cons_inner_nodes[1]
 E  flow_cons_inner_nodes[2]
 E  flow_cons_inner_nodes[3]
 E  flow_cons_inner_nodes[4]
 E  flow_cons_source
 E  flow_cons_target
 L  primal_lower
 L  mccormick1[0,1]
 L  mccormick1[0,2]
 L  mccormick1[0,4]
 L  mccormick1[1,0]
 L  mccormick1[1,2]
 L  mccormick1[1,3]
 L  mccormick1[1,4]
 L  mccormick1[1,5]
 L  mccormick1[2,0]
 L  mccormick1[2,1]
 L  mccormick1[2,3]
 L  mccormick1[2,4]
 L  mccormick1[2,5]
 L  mccormick1[3,1]
 L  mccormick1[3,2]
 L  mccormick1[3,5]
 L  mccormick1[4,0]
 L  mccormick1[4,1]
 L  mccormick1[4,2]
 L  mccormick1[4,5]
 L  mccormick1[5,1]
 L  mccormick1[5,2]
 L  mccormick1[5,3]
 L  mccormick1[5,4]
 L  mccormick2[0,1]
 L  mccormick2[0,2]
 L  mccormick2[0,4]
 L  mccormick2[1,0]
 L  mccormick2[1,2]
 L  mccormick2[1,3]
 L  mccormick2[1,4]
 L  mccormick2[1,5]
 L  mccormick2[2,0]
 L  mccormick2[2,1]
 L  mccormick2[2,3]
 L  mccormick2[2,4]
 L  mccormick2[2,5]
 L  mccormick2[3,1]
 L  mccormick2[3,2]
 L  mccormick2[3,5]
 L  mccormick2[4,0]
 L  mccormick2[4,1]
 L  mccormick2[4,2]
 L  mccormick2[4,5]
 L  mccormick2[5,1]
 L  mccormick2[5,2]
 L  mccormick2[5,3]
 L  mccormick2[5,4]
 G  mccormick3[0,1]
 G  mccormick3[0,2]
 G  mccormick3[0,4]
 G  mccormick3[1,0]
 G  mccormick3[1,2]
 G  mccormick3[1,3]
 G  mccormick3[1,4]
 G  mccormick3[1,5]
 G  mccormick3[2,0]
 G  mccormick3[2,1]
 G  mccormick3[2,3]
 G  mccormick3[2,4]
 G  mccormick3[2,5]
 G  mccormick3[3,1]
 G  mccormick3[3,2]
 G  mccormick3[3,5]
 G  mccormick3[4,0]
 G  mccormick3[4,1]
 G  mccormick3[4,2]
 G  mccormick3[4,5]
 G  mccormick3[5,1]
 G  mccormick3[5,2]
 G  mccormick3[5,3]
 G  mccormick3[5,4]
COLUMNS
    MARKER    'MARKER'                 'INTORG'
    y[0,1]    OBJ       5.5973207876626120e+01
    y[0,1]    flow_cons_inner_nodes[1]  1
    y[0,1]    flow_cons_source  1
    y[0,1]    mccormick2[0,1]  -1
    y[0,1]    mccormick3[0,1]  -1
    y[0,2]    OBJ       75.8023746329889
    y[0,2]    flow_cons_inner_nodes[2]  1
    y[0,2]    flow_cons_source  1
    y[0,2]    mccormick2[0,2]  -1
    y[0,2]    mccormick3[0,2]  -1
    y[0,4]    OBJ       6.9260378283691168e+01
    y[0,4]    flow_cons_inner_nodes[4]  1
    y[0,4]    flow_cons_source  1
    y[0,4]    mccormick2[0,4]  -1
    y[0,4]    mccormick3[0,4]  -1
    y[1,0]    OBJ       5.5973207876626120e+01
    y[1,0]    flow_cons_inner_nodes[1]  -1
    y[1,0]    flow_cons_source  -1
    y[1,0]    mccormick2[1,0]  -1
    y[1,0]    mccormick3[1,0]  -1
    y[1,2]    OBJ       2.0615528128088304e+01
    y[1,2]    flow_cons_inner_nodes[1]  -1
    y[1,2]    flow_cons_inner_nodes[2]  1
    y[1,2]    mccormick2[1,2]  -1
    y[1,2]    mccormick3[1,2]  -1
    y[1,3]    OBJ       3.9217343102255157e+01
    y[1,3]    flow_cons_inner_nodes[1]  -1
    y[1,3]    flow_cons_inner_nodes[3]  1
    y[1,3]    mccormick2[1,3]  -1
    y[1,3]    mccormick3[1,3]  -1
    y[1,4]    OBJ       4.1109609582188931e+01
    y[1,4]    flow_cons_inner_nodes[1]  -1
    y[1,4]    flow_cons_inner_nodes[4]  1
    y[1,4]    mccormick2[1,4]  -1
    y[1,4]    mccormick3[1,4]  -1
    y[1,5]    OBJ       2.9017236257093817e+01
    y[1,5]    flow_cons_inner_nodes[1]  -1
    y[1,5]    flow_cons_target  1
    y[1,5]    mccormick2[1,5]  -1
    y[1,5]    mccormick3[1,5]  -1
    y[2,0]    OBJ       75.8023746329889
    y[2,0]    flow_cons_inner_nodes[2]  -1
    y[2,0]    flow_cons_source  -1
    y[2,0]    mccormick2[2,0]  -1
    y[2,0]    mccormick3[2,0]  -1
    y[2,1]    OBJ       2.0615528128088304e+01
    y[2,1]    flow_cons_inner_nodes[1]  1
    y[2,1]    flow_cons_inner_nodes[2]  -1
    y[2,1]    mccormick2[2,1]  -1
    y[2,1]    mccormick3[2,1]  -1
    y[2,3]    OBJ       4.3185645763378368e+01
    y[2,3]    flow_cons_inner_nodes[2]  -1
    y[2,3]    flow_cons_inner_nodes[3]  1
    y[2,3]    mccormick2[2,3]  -1
    y[2,3]    mccormick3[2,3]  -1
    y[2,4]    OBJ       3.9812058474788763e+01
    y[2,4]    flow_cons_inner_nodes[2]  -1
    y[2,4]    flow_cons_inner_nodes[4]  1
    y[2,4]    mccormick2[2,4]  -1
    y[2,4]    mccormick3[2,4]  -1
    y[2,5]    OBJ       1.3453624047073710e+01
    y[2,5]    flow_cons_inner_nodes[2]  -1
    y[2,5]    flow_cons_target  1
    y[2,5]    mccormick2[2,5]  -1
    y[2,5]    mccormick3[2,5]  -1
    y[3,1]    OBJ       3.9217343102255157e+01
    y[3,1]    flow_cons_inner_nodes[1]  1
    y[3,1]    flow_cons_inner_nodes[3]  -1
    y[3,1]    mccormick2[3,1]  -1
    y[3,1]    mccormick3[3,1]  -1
    y[3,2]    OBJ       4.3185645763378368e+01
    y[3,2]    flow_cons_inner_nodes[2]  1
    y[3,2]    flow_cons_inner_nodes[3]  -1
    y[3,2]    mccormick2[3,2]  -1
    y[3,2]    mccormick3[3,2]  -1
    y[3,5]    OBJ       5.6639209034025185e+01
    y[3,5]    flow_cons_inner_nodes[3]  -1
    y[3,5]    flow_cons_target  1
    y[3,5]    mccormick2[3,5]  -1
    y[3,5]    mccormick3[3,5]  -1
    y[4,0]    OBJ       6.9260378283691168e+01
    y[4,0]    flow_cons_inner_nodes[4]  -1
    y[4,0]    flow_cons_source  -1
    y[4,0]    mccormick2[4,0]  -1
    y[4,0]    mccormick3[4,0]  -1
    y[4,1]    OBJ       4.1109609582188931e+01
    y[4,1]    flow_cons_inner_nodes[1]  1
    y[4,1]    flow_cons_inner_nodes[4]  -1
    y[4,1]    mccormick2[4,1]  -1
    y[4,1]    mccormick3[4,1]  -1
    y[4,2]    OBJ       3.9812058474788763e+01
    y[4,2]    flow_cons_inner_nodes[2]  1
    y[4,2]    flow_cons_inner_nodes[4]  -1
    y[4,2]    mccormick2[4,2]  -1
    y[4,2]    mccormick3[4,2]  -1
    y[4,5]    OBJ       3.0066592756745816e+01
    y[4,5]    flow_cons_inner_nodes[4]  -1
    y[4,5]    flow_cons_target  1
    y[4,5]    mccormick2[4,5]  -1
    y[4,5]    mccormick3[4,5]  -1
    y[5,1]    OBJ       2.9017236257093817e+01
    y[5,1]    flow_cons_inner_nodes[1]  1
    y[5,1]    flow_cons_target  -1
    y[5,1]    mccormick2[5,1]  -1
    y[5,1]    mccormick3[5,1]  -1
    y[5,2]    OBJ       1.3453624047073710e+01
    y[5,2]    flow_cons_inner_nodes[2]  1
    y[5,2]    flow_cons_target  -1
    y[5,2]    mccormick2[5,2]  -1
    y[5,2]    mccormick3[5,2]  -1
    y[5,3]    OBJ       5.6639209034025185e+01
    y[5,3]    flow_cons_inner_nodes[3]  1
    y[5,3]    flow_cons_target  -1
    y[5,3]    mccormick2[5,3]  -1
    y[5,3]    mccormick3[5,3]  -1
    y[5,4]    OBJ       3.0066592756745816e+01
    y[5,4]    flow_cons_inner_nodes[4]  1
    y[5,4]    flow_cons_target  -1
    y[5,4]    mccormick2[5,4]  -1
    y[5,4]    mccormick3[5,4]  -1
    x[0,1]    OBJ       1
    x[0,1]    primal_lower  2.5637796221407596e+00
    x[0,2]    OBJ       1
    x[0,2]    primal_lower  2.4049579253872473e+00
    x[0,4]    OBJ       1
    x[0,4]    primal_lower  1.8230325315720548e+00
    x[1,0]    OBJ       1
    x[1,0]    primal_lower  1.3664046721082717e+00
    x[1,2]    OBJ       1
    x[1,2]    primal_lower  3.6478015124197691e+00
    x[1,3]    OBJ       1
    x[1,3]    primal_lower  1.2722503577151745e+00
    x[1,4]    OBJ       1
    x[1,4]    primal_lower  3.1427575667706589e+00
    x[1,5]    OBJ       1
    x[1,5]    primal_lower  4.2343940596153793e+00
    x[2,0]    OBJ       1
    x[2,0]    primal_lower  3.5169707085720123e+00
    x[2,1]    OBJ       1
    x[2,1]    primal_lower  3.4752543371734181e+00
    x[2,3]    OBJ       1
    x[2,3]    primal_lower  0.882721593901386
    x[2,4]    OBJ       1
    x[2,4]    primal_lower  2.4240345986772782e+00
    x[2,5]    OBJ       1
    x[2,5]    primal_lower  0.139004170114712
    x[3,1]    OBJ       1
    x[3,1]    primal_lower  1.4150450994067327e+00
    x[3,2]    OBJ       1
    x[3,2]    primal_lower  0.58046246793181
    x[3,5]    OBJ       1
    x[3,5]    primal_lower  1.2921465522593270e+00
    x[4,0]    OBJ       1
    x[4,0]    primal_lower  1.4478197002506710e+00
    x[4,1]    OBJ       1
    x[4,1]    primal_lower  4.5038426580051345e+00
    x[4,2]    OBJ       1
    x[4,2]    primal_lower  4.0493333820469851e-01
    x[4,5]    OBJ       1
    x[4,5]    primal_lower  4.5923160841518607e-01
    x[5,1]    OBJ       1
    x[5,1]    primal_lower  2.4511495878020604e+00
    x[5,2]    OBJ       1
    x[5,2]    primal_lower  3.4167659542574151e+00
    x[5,3]    OBJ       1
    x[5,3]    primal_lower  4.7107438298534330e+00
    x[5,4]    OBJ       1
    x[5,4]    primal_lower  4.0918946310815674e+00
    u[0,1]    primal_lower  60
    u[0,1]    mccormick1[0,1]  -1
    u[0,1]    mccormick3[0,1]  -1
    u[0,2]    primal_lower  84
    u[0,2]    mccormick1[0,2]  -1
    u[0,2]    mccormick3[0,2]  -1
    u[0,4]    primal_lower  26
    u[0,4]    mccormick1[0,4]  -1
    u[0,4]    mccormick3[0,4]  -1
    u[1,0]    primal_lower  47
    u[1,0]    mccormick1[1,0]  -1
    u[1,0]    mccormick3[1,0]  -1
    u[1,2]    primal_lower  100
    u[1,2]    mccormick1[1,2]  -1
    u[1,2]    mccormick3[1,2]  -1
    u[1,3]    primal_lower  90
    u[1,3]    mccormick1[1,3]  -1
    u[1,3]    mccormick3[1,3]  -1
    u[1,4]    primal_lower  17
    u[1,4]    mccormick1[1,4]  -1
    u[1,4]    mccormick3[1,4]  -1
    u[1,5]    primal_lower  76
    u[1,5]    mccormick1[1,5]  -1
    u[1,5]    mccormick3[1,5]  -1
    u[2,0]    primal_lower  53
    u[2,0]    mccormick1[2,0]  -1
    u[2,0]    mccormick3[2,0]  -1
    u[2,1]    primal_lower  18
    u[2,1]    mccormick1[2,1]  -1
    u[2,1]    mccormick3[2,1]  -1
    u[2,3]    primal_lower  44
    u[2,3]    mccormick1[2,3]  -1
    u[2,3]    mccormick3[2,3]  -1
    u[2,4]    primal_lower  95
    u[2,4]    mccormick1[2,4]  -1
    u[2,4]    mccormick3[2,4]  -1
    u[2,5]    primal_lower  84
    u[2,5]    mccormick1[2,5]  -1
    u[2,5]    mccormick3[2,5]  -1
    u[3,1]    primal_lower  40
    u[3,1]    mccormick1[3,1]  -1
    u[3,1]    mccormick3[3,1]  -1
    u[3,2]    primal_lower  77
    u[3,2]    mccormick1[3,2]  -1
    u[3,2]    mccormick3[3,2]  -1
    u[3,5]    primal_lower  49
    u[3,5]    mccormick1[3,5]  -1
    u[3,5]    mccormick3[3,5]  -1
    u[4,0]    primal_lower  49
    u[4,0]    mccormick1[4,0]  -1
    u[4,0]    mccormick3[4,0]  -1
    u[4,1]    primal_lower  56
    u[4,1]    mccormick1[4,1]  -1
    u[4,1]    mccormick3[4,1]  -1
    u[4,2]    primal_lower  37
    u[4,2]    mccormick1[4,2]  -1
    u[4,2]    mccormick3[4,2]  -1
    u[4,5]    primal_lower  18
    u[4,5]    mccormick1[4,5]  -1
    u[4,5]    mccormick3[4,5]  -1
    u[5,1]    primal_lower  37
    u[5,1]    mccormick1[5,1]  -1
    u[5,1]    mccormick3[5,1]  -1
    u[5,2]    primal_lower  60
    u[5,2]    mccormick1[5,2]  -1
    u[5,2]    mccormick3[5,2]  -1
    u[5,3]    primal_lower  16
    u[5,3]    mccormick1[5,3]  -1
    u[5,3]    mccormick3[5,3]  -1
    u[5,4]    primal_lower  23
    u[5,4]    mccormick1[5,4]  -1
    u[5,4]    mccormick3[5,4]  -1
    r[0,1]    OBJ       5.5973207876626123e+00
    r[0,1]    mccormick1[0,1]  1
    r[0,1]    mccormick2[0,1]  1
    r[0,1]    mccormick3[0,1]  1
    r[0,2]    OBJ       7.58023746329889
    r[0,2]    mccormick1[0,2]  1
    r[0,2]    mccormick2[0,2]  1
    r[0,2]    mccormick3[0,2]  1
    r[0,4]    OBJ       6.9260378283691173e+00
    r[0,4]    mccormick1[0,4]  1
    r[0,4]    mccormick2[0,4]  1
    r[0,4]    mccormick3[0,4]  1
    r[1,0]    OBJ       5.5973207876626123e+00
    r[1,0]    mccormick1[1,0]  1
    r[1,0]    mccormick2[1,0]  1
    r[1,0]    mccormick3[1,0]  1
    r[1,2]    OBJ       2.0615528128088303e+00
    r[1,2]    mccormick1[1,2]  1
    r[1,2]    mccormick2[1,2]  1
    r[1,2]    mccormick3[1,2]  1
    r[1,3]    OBJ       3.9217343102255158e+00
    r[1,3]    mccormick1[1,3]  1
    r[1,3]    mccormick2[1,3]  1
    r[1,3]    mccormick3[1,3]  1
    r[1,4]    OBJ       4.1109609582188931e+00
    r[1,4]    mccormick1[1,4]  1
    r[1,4]    mccormick2[1,4]  1
    r[1,4]    mccormick3[1,4]  1
    r[1,5]    OBJ       2.9017236257093817e+00
    r[1,5]    mccormick1[1,5]  1
    r[1,5]    mccormick2[1,5]  1
    r[1,5]    mccormick3[1,5]  1
    r[2,0]    OBJ       7.58023746329889
    r[2,0]    mccormick1[2,0]  1
    r[2,0]    mccormick2[2,0]  1
    r[2,0]    mccormick3[2,0]  1
    r[2,1]    OBJ       2.0615528128088303e+00
    r[2,1]    mccormick1[2,1]  1
    r[2,1]    mccormick2[2,1]  1
    r[2,1]    mccormick3[2,1]  1
    r[2,3]    OBJ       4.3185645763378373e+00
    r[2,3]    mccormick1[2,3]  1
    r[2,3]    mccormick2[2,3]  1
    r[2,3]    mccormick3[2,3]  1
    r[2,4]    OBJ       3.9812058474788765e+00
    r[2,4]    mccormick1[2,4]  1
    r[2,4]    mccormick2[2,4]  1
    r[2,4]    mccormick3[2,4]  1
    r[2,5]    OBJ       1.3453624047073711e+00
    r[2,5]    mccormick1[2,5]  1
    r[2,5]    mccormick2[2,5]  1
    r[2,5]    mccormick3[2,5]  1
    r[3,1]    OBJ       3.9217343102255158e+00
    r[3,1]    mccormick1[3,1]  1
    r[3,1]    mccormick2[3,1]  1
    r[3,1]    mccormick3[3,1]  1
    r[3,2]    OBJ       4.3185645763378373e+00
    r[3,2]    mccormick1[3,2]  1
    r[3,2]    mccormick2[3,2]  1
    r[3,2]    mccormick3[3,2]  1
    r[3,5]    OBJ       5.6639209034025191e+00
    r[3,5]    mccormick1[3,5]  1
    r[3,5]    mccormick2[3,5]  1
    r[3,5]    mccormick3[3,5]  1
    r[4,0]    OBJ       6.9260378283691173e+00
    r[4,0]    mccormick1[4,0]  1
    r[4,0]    mccormick2[4,0]  1
    r[4,0]    mccormick3[4,0]  1
    r[4,1]    OBJ       4.1109609582188931e+00
    r[4,1]    mccormick1[4,1]  1
    r[4,1]    mccormick2[4,1]  1
    r[4,1]    mccormick3[4,1]  1
    r[4,2]    OBJ       3.9812058474788765e+00
    r[4,2]    mccormick1[4,2]  1
    r[4,2]    mccormick2[4,2]  1
    r[4,2]    mccormick3[4,2]  1
    r[4,5]    OBJ       3.0066592756745818e+00
    r[4,5]    mccormick1[4,5]  1
    r[4,5]    mccormick2[4,5]  1
    r[4,5]    mccormick3[4,5]  1
    r[5,1]    OBJ       2.9017236257093817e+00
    r[5,1]    mccormick1[5,1]  1
    r[5,1]    mccormick2[5,1]  1
    r[5,1]    mccormick3[5,1]  1
    r[5,2]    OBJ       1.3453624047073711e+00
    r[5,2]    mccormick1[5,2]  1
    r[5,2]    mccormick2[5,2]  1
    r[5,2]    mccormick3[5,2]  1
    r[5,3]    OBJ       5.6639209034025191e+00
    r[5,3]    mccormick1[5,3]  1
    r[5,3]    mccormick2[5,3]  1
    r[5,3]    mccormick3[5,3]  1
    r[5,4]    OBJ       3.0066592756745818e+00
    r[5,4]    mccormick1[5,4]  1
    r[5,4]    mccormick2[5,4]  1
    r[5,4]    mccormick3[5,4]  1
    MARKER    'MARKER'                 'INTEND'
RHS
    RHS1      flow_cons_source  1
    RHS1      flow_cons_target  1
    RHS1      primal_lower  114
    RHS1      mccormick3[0,1]  -1
    RHS1      mccormick3[0,2]  -1
    RHS1      mccormick3[0,4]  -1
    RHS1      mccormick3[1,0]  -1
    RHS1      mccormick3[1,2]  -1
    RHS1      mccormick3[1,3]  -1
    RHS1      mccormick3[1,4]  -1
    RHS1      mccormick3[1,5]  -1
    RHS1      mccormick3[2,0]  -1
    RHS1      mccormick3[2,1]  -1
    RHS1      mccormick3[2,3]  -1
    RHS1      mccormick3[2,4]  -1
    RHS1      mccormick3[2,5]  -1
    RHS1      mccormick3[3,1]  -1
    RHS1      mccormick3[3,2]  -1
    RHS1      mccormick3[3,5]  -1
    RHS1      mccormick3[4,0]  -1
    RHS1      mccormick3[4,1]  -1
    RHS1      mccormick3[4,2]  -1
    RHS1      mccormick3[4,5]  -1
    RHS1      mccormick3[5,1]  -1
    RHS1      mccormick3[5,2]  -1
    RHS1      mccormick3[5,3]  -1
    RHS1      mccormick3[5,4]  -1
BOUNDS
 BV BND1      y[0,1]  
 BV BND1      y[0,2]  
 BV BND1      y[0,4]  
 BV BND1      y[1,0]  
 BV BND1      y[1,2]  
 BV BND1      y[1,3]  
 BV BND1      y[1,4]  
 BV BND1      y[1,5]  
 BV BND1      y[2,0]  
 BV BND1      y[2,1]  
 BV BND1      y[2,3]  
 BV BND1      y[2,4]  
 BV BND1      y[2,5]  
 BV BND1      y[3,1]  
 BV BND1      y[3,2]  
 BV BND1      y[3,5]  
 BV BND1      y[4,0]  
 BV BND1      y[4,1]  
 BV BND1      y[4,2]  
 BV BND1      y[4,5]  
 BV BND1      y[5,1]  
 BV BND1      y[5,2]  
 BV BND1      y[5,3]  
 BV BND1      y[5,4]  
 BV BND1      x[0,1]  
 BV BND1      x[0,2]  
 BV BND1      x[0,4]  
 BV BND1      x[1,0]  
 BV BND1      x[1,2]  
 BV BND1      x[1,3]  
 BV BND1      x[1,4]  
 BV BND1      x[1,5]  
 BV BND1      x[2,0]  
 BV BND1      x[2,1]  
 BV BND1      x[2,3]  
 BV BND1      x[2,4]  
 BV BND1      x[2,5]  
 BV BND1      x[3,1]  
 BV BND1      x[3,2]  
 BV BND1      x[3,5]  
 BV BND1      x[4,0]  
 BV BND1      x[4,1]  
 BV BND1      x[4,2]  
 BV BND1      x[4,5]  
 BV BND1      x[5,1]  
 BV BND1      x[5,2]  
 BV BND1      x[5,3]  
 BV BND1      x[5,4]  
 BV BND1      u[0,1]  
 BV BND1      u[0,2]  
 BV BND1      u[0,4]  
 BV BND1      u[1,0]  
 BV BND1      u[1,2]  
 BV BND1      u[1,3]  
 BV BND1      u[1,4]  
 BV BND1      u[1,5]  
 BV BND1      u[2,0]  
 BV BND1      u[2,1]  
 BV BND1      u[2,3]  
 BV BND1      u[2,4]  
 BV BND1      u[2,5]  
 BV BND1      u[3,1]  
 BV BND1      u[3,2]  
 BV BND1      u[3,5]  
 BV BND1      u[4,0]  
 BV BND1      u[4,1]  
 BV BND1      u[4,2]  
 BV BND1      u[4,5]  
 BV BND1      u[5,1]  
 BV BND1      u[5,2]  
 BV BND1      u[5,3]  
 BV BND1      u[5,4]  
 BV BND1      r[0,1]  
 BV BND1      r[0,2]  
 BV BND1      r[0,4]  
 BV BND1      r[1,0]  
 BV BND1      r[1,2]  
 BV BND1      r[1,3]  
 BV BND1      r[1,4]  
 BV BND1      r[1,5]  
 BV BND1      r[2,0]  
 BV BND1      r[2,1]  
 BV BND1      r[2,3]  
 BV BND1      r[2,4]  
 BV BND1      r[2,5]  
 BV BND1      r[3,1]  
 BV BND1      r[3,2]  
 BV BND1      r[3,5]  
 BV BND1      r[4,0]  
 BV BND1      r[4,1]  
 BV BND1      r[4,2]  
 BV BND1      r[4,5]  
 BV BND1      r[5,1]  
 BV BND1      r[5,2]  
 BV BND1      r[5,3]  
 BV BND1      r[5,4]  
ENDATA
