instances/shortest_path/discrete/shortest_path_6_2.kp
44762
114

[2.5637796221407596 2.4049579253872473 1.8230325315720548 1.3664046721082717 3.647801512419769 1.2722503577151745 3.142757566770659 4.234394059615379 3.5169707085720123 3.475254337173418 0.882721593901386 2.424034598677278 0.139004170114712 1.4150450994067327 0.58046246793181 1.292146552259327 1.447819700250671 4.5038426580051345 0.4049333382046985 0.45923160841518607 2.4511495878020604 3.416765954257415 4.710743829853433 4.091894631081567]

[60 84 26 47 100 90 17 76 53 18 44 95 84 40 77 49 49 56 37 18 37 60 16 23]
